c FILE /home/rafael/Documents/HappySet/MIHS/inputs/happygen/output/graph_d_regular_k10_p0.4_v50_20241127_082705.txt
c SOURCE This is a d-regular graph formed for the happy graph colouring problem.
c DESCRIPTION It was generated using the problem generator of Rhyd Lewis
c
c GRAPH STATS
c Seed                             = -2135156381
c Number of Nodes                  = 50
c Number of colours k              = 10
c Number of pre-assignments        = 20
c Degree of all vertices           = 6
c Density                          = 0.122449
c 
c The degrees of nodes 1 to 50, respectively, are as follows 
c [6, 6, 6, 6, 6, 6, 6, 6, 6, 6, 6, 6, 6, 6, 6, 6, 6, 6, 6, 6, 6, 6, 6, 6, 6, 6, 
c  6, 6, 6, 6, 6, 6, 6, 6, 6, 6, 6, 6, 6, 6, 6, 6, 6, 6, 6, 6, 6, 6, 6, 6] 
c  
p edge 50 150 10
e 1 8
e 1 9
e 1 13
e 1 30
e 1 39
e 1 40
e 2 7
e 2 18
e 2 25
e 2 35
e 2 41
e 2 50
e 3 4
e 3 11
e 3 20
e 3 23
e 3 25
e 3 42
e 4 9
e 4 19
e 4 31
e 4 35
e 4 39
e 5 6
e 5 8
e 5 19
e 5 22
e 5 28
e 5 44
e 6 20
e 6 28
e 6 35
e 6 39
e 6 40
e 7 25
e 7 26
e 7 32
e 7 42
e 7 46
e 8 13
e 8 15
e 8 18
e 8 46
e 9 27
e 9 35
e 9 36
e 9 41
e 10 24
e 10 26
e 10 41
e 10 43
e 10 47
e 10 50
e 11 14
e 11 21
e 11 28
e 11 38
e 11 43
e 12 15
e 12 30
e 12 34
e 12 43
e 12 47
e 12 49
e 13 15
e 13 22
e 13 31
e 13 39
e 14 23
e 14 33
e 14 36
e 14 46
e 14 49
e 15 21
e 15 23
e 15 25
e 16 21
e 16 26
e 16 27
e 16 30
e 16 36
e 16 37
e 17 27
e 17 32
e 17 38
e 17 39
e 17 48
e 17 49
e 18 19
e 18 21
e 18 31
e 18 36
e 19 38
e 19 43
e 19 44
e 20 22
e 20 31
e 20 34
e 20 45
e 21 40
e 21 41
e 22 29
e 22 33
e 22 37
e 23 30
e 23 34
e 23 45
e 24 26
e 24 27
e 24 29
e 24 44
e 24 47
e 25 37
e 25 38
e 26 30
e 26 39
e 27 29
e 27 50
e 28 41
e 28 42
e 28 50
e 29 32
e 29 46
e 29 49
e 30 45
e 31 44
e 31 47
e 32 35
e 32 38
e 32 48
e 33 36
e 33 40
e 33 42
e 33 45
e 34 43
e 34 49
e 34 50
e 35 38
e 36 37
e 37 40
e 37 44
e 40 41
e 42 43
e 42 48
e 44 47
e 45 46
e 45 49
e 46 48
e 47 48
e 48 50
n 3 10
n 5 1
n 7 4
n 14 6
n 15 9
n 16 3
n 18 5
n 22 1
n 24 1
n 29 1
n 30 3
n 31 5
n 34 3
n 35 8
n 38 8
n 40 2
n 41 2
n 43 3
n 45 3
n 48 7
